(set-info :source |printed by MathSAT|)
(declare-fun |.x{100}| () Int)
(declare-fun |.x{112}| () Int)
(declare-fun |.y{4}| () Int)
(declare-fun |.x{113}| () Int)
(declare-fun |.x{101}| () (Array Int Int))
(declare-fun |.x{114}| () (Array Int Int))
(declare-fun |.x{102}| () Int)
(declare-fun |.x{111}| () Int)
(declare-fun |.x{103}| () Int)
(declare-fun |.x{115}| () Int)
(declare-fun |.x{104}| () Int)
(declare-fun |.y{5}| () Int)
(declare-fun |.x{105}| () (Array Int Int))
(declare-fun |.y{6}| () (Array Int Int))
(declare-fun |.x{106}| () Int)
(declare-fun |.y{7}| () Int)
(declare-fun |.loc{3}| () Bool)
(declare-fun |.loc{5}| () Bool)
(declare-fun |.loc{4}| () Bool)
(declare-fun |.loc{6}| () Bool)
(declare-fun |.x{86}| () Int)
(declare-fun |.x{124}| () Int)
(declare-fun |.x{87}| () Int)
(declare-fun |.x{147}| () Int)
(declare-fun |.x{151}| () Int)
(define-fun .def_24 () Bool (! |.loc{3}| :next |.loc{5}|))
(define-fun .def_82 () Bool (not .def_24))
(define-fun .def_26 () Bool (! |.loc{4}| :next |.loc{6}|))
(define-fun .def_59 () Bool (not .def_26))
(define-fun .def_202 () Bool (! (and .def_59 .def_82) :init true))
(define-fun .def_16 () Int (! |.x{103}| :next |.x{115}|))
(define-fun .def_191 () Bool (= |.x{112}| .def_16))
(define-fun .def_22 () Int (! |.x{106}| :next |.y{7}|))
(define-fun .def_187 () Bool (= |.x{115}| .def_22))
(define-fun .def_18 () Int (! |.x{104}| :next |.y{5}|))
(define-fun .def_185 () Bool (= |.x{113}| .def_18))
(define-fun .def_20 () (Array Int Int) (! |.x{105}| :next |.y{6}|))
(define-fun .def_184 () Bool (= |.x{114}| .def_20))
(define-fun .def_186 () Bool (and .def_184 .def_185))
(define-fun .def_188 () Bool (and .def_186 .def_187))
(define-fun .def_14 () Int (! |.x{102}| :next |.x{111}|))
(define-fun .def_114 () Bool (<= .def_22 .def_14))
(define-fun .def_189 () Bool (and .def_114 .def_188))
(define-fun .def_190 () Bool (and .def_82 .def_189))
(define-fun .def_192 () Bool (and .def_190 .def_191))
(define-fun .def_158 () Bool (= |.x{111}| 0))
(define-fun .def_193 () Bool (and .def_158 .def_192))
(define-fun .def_10 () Int (! |.y{4}| :next |.x{113}|))
(define-fun .def_182 () Bool (= .def_10 |.x{113}|))
(define-fun .def_174 () Bool (<= .def_10 0))
(define-fun .def_177 () Bool (not .def_174))
(define-fun .def_109 () Bool (<= |.x{124}| 0))
(define-fun .def_110 () Bool (not .def_109))
(define-fun .def_175 () Bool (or .def_110 .def_174))
(define-fun .def_104 () Int (* (- 1) |.x{124}|))
(define-fun .def_105 () Int (+ .def_14 .def_104))
(define-fun .def_171 () Int (+ .def_10 .def_105))
(define-fun .def_172 () Bool (= .def_171 0))
(define-fun .def_166 () Bool (<= .def_16 .def_14))
(define-fun .def_167 () Bool (not .def_166))
(define-fun .def_12 () (Array Int Int) (! |.x{101}| :next |.x{114}|))
(define-fun .def_95 () Int (select .def_12 |.x{124}|))
(define-fun .def_96 () Int (* (- 1) .def_95))
(define-fun .def_8 () Int (! |.x{100}| :next |.x{112}|))
(define-fun .def_163 () Int (+ .def_8 .def_96))
(define-fun .def_164 () Bool (= .def_163 (- 42)))
(define-fun .def_91 () Bool (= .def_12 |.x{114}|))
(define-fun .def_28 () Bool (= .def_16 |.x{115}|))
(define-fun .def_161 () Bool (and .def_28 .def_91))
(define-fun .def_165 () Bool (and .def_161 .def_164))
(define-fun .def_168 () Bool (and .def_165 .def_167))
(define-fun .def_173 () Bool (and .def_168 .def_172))
(define-fun .def_176 () Bool (and .def_173 .def_175))
(define-fun .def_178 () Bool (and .def_176 .def_177))
(define-fun .def_179 () Bool (and .def_24 .def_178))
(define-fun .def_137 () Int (* (- 1) |.x{111}|))
(define-fun .def_138 () Int (+ .def_14 .def_137))
(define-fun .def_139 () Bool (= .def_138 (- 1)))
(define-fun .def_180 () Bool (and .def_139 .def_179))
(define-fun .def_61 () Bool (= .def_8 |.x{112}|))
(define-fun .def_181 () Bool (and .def_61 .def_180))
(define-fun .def_183 () Bool (and .def_181 .def_182))
(define-fun .def_194 () Bool (or .def_183 .def_193))
(define-fun .def_195 () Bool (and |.loc{5}| .def_194))
(define-fun .def_196 () Bool (and .def_26 .def_195))
(define-fun .def_151 () Bool (= .def_18 |.y{7}|))
(define-fun .def_149 () Bool (= .def_16 |.y{5}|))
(define-fun .def_147 () Bool (= .def_14 |.x{115}|))
(define-fun .def_148 () Bool (and .def_91 .def_147))
(define-fun .def_150 () Bool (and .def_148 .def_149))
(define-fun .def_152 () Bool (and .def_150 .def_151))
(define-fun .def_153 () Bool (and .def_24 .def_152))
(define-fun .def_134 () Bool (not |.loc{5}|))
(define-fun .def_154 () Bool (and .def_134 .def_153))
(define-fun .def_155 () Bool (and .def_59 .def_154))
(define-fun .def_156 () Bool (and .def_61 .def_155))
(define-fun .def_63 () Bool (= .def_20 |.y{6}|))
(define-fun .def_157 () Bool (and .def_63 .def_156))
(define-fun .def_159 () Bool (and .def_157 .def_158))
(define-fun .def_53 () Bool (<= .def_18 .def_10))
(define-fun .def_160 () Bool (and .def_53 .def_159))
(define-fun .def_197 () Bool (or .def_160 .def_196))
(define-fun .def_143 () (Array Int Int) (store .def_20 |.x{87}| |.x{86}|))
(define-fun .def_144 () Bool (= |.y{6}| .def_143))
(define-fun .def_127 () Bool (<= .def_18 0))
(define-fun .def_132 () Bool (not .def_127))
(define-fun .def_128 () Bool (<= |.x{87}| 0))
(define-fun .def_129 () Bool (not .def_128))
(define-fun .def_130 () Bool (or .def_127 .def_129))
(define-fun .def_122 () Int (* (- 1) |.x{87}|))
(define-fun .def_123 () Int (+ .def_18 .def_122))
(define-fun .def_124 () Int (+ .def_14 .def_123))
(define-fun .def_125 () Bool (= .def_124 0))
(define-fun .def_115 () Bool (not .def_114))
(define-fun .def_34 () Bool (<= .def_8 0))
(define-fun .def_111 () Bool (or .def_34 .def_110))
(define-fun .def_106 () Int (+ .def_8 .def_105))
(define-fun .def_107 () Bool (= .def_106 0))
(define-fun .def_68 () Int (* (- 1) |.x{86}|))
(define-fun .def_100 () Int (+ .def_68 .def_95))
(define-fun .def_101 () Int (+ .def_16 .def_100))
(define-fun .def_102 () Bool (= .def_101 0))
(define-fun .def_90 () Bool (= .def_22 |.y{7}|))
(define-fun .def_92 () Bool (and .def_90 .def_91))
(define-fun .def_93 () Bool (and .def_28 .def_92))
(define-fun .def_103 () Bool (and .def_93 .def_102))
(define-fun .def_108 () Bool (and .def_103 .def_107))
(define-fun .def_112 () Bool (and .def_108 .def_111))
(define-fun .def_39 () Bool (not .def_34))
(define-fun .def_113 () Bool (and .def_39 .def_112))
(define-fun .def_116 () Bool (and .def_113 .def_115))
(define-fun .def_126 () Bool (and .def_116 .def_125))
(define-fun .def_131 () Bool (and .def_126 .def_130))
(define-fun .def_133 () Bool (and .def_131 .def_132))
(define-fun .def_135 () Bool (and .def_133 .def_134))
(define-fun .def_136 () Bool (and .def_26 .def_135))
(define-fun .def_140 () Bool (and .def_136 .def_139))
(define-fun .def_141 () Bool (and .def_82 .def_140))
(define-fun .def_142 () Bool (and .def_61 .def_141))
(define-fun .def_145 () Bool (and .def_142 .def_144))
(define-fun .def_73 () Bool (= .def_18 |.y{5}|))
(define-fun .def_146 () Bool (and .def_73 .def_145))
(define-fun .def_198 () Bool (or .def_146 .def_197))
(define-fun .def_199 () Bool (and |.loc{6}| .def_198))
(define-fun .def_87 () Bool (<= |.x{112}| 0))
(define-fun .def_88 () Bool (not .def_87))
(define-fun .def_85 () Bool (= |.x{113}| 0))
(define-fun .def_78 () Bool (<= |.x{115}| 0))
(define-fun .def_79 () Bool (not .def_78))
(define-fun .def_75 () Bool (<= |.y{5}| 0))
(define-fun .def_76 () Bool (not .def_75))
(define-fun .def_77 () Bool (and |.loc{5}| .def_76))
(define-fun .def_80 () Bool (and .def_77 .def_79))
(define-fun .def_56 () Bool (not |.loc{6}|))
(define-fun .def_81 () Bool (and .def_56 .def_80))
(define-fun .def_83 () Bool (and .def_81 .def_82))
(define-fun .def_84 () Bool (and .def_59 .def_83))
(define-fun .def_86 () Bool (and .def_84 .def_85))
(define-fun .def_89 () Bool (and .def_86 .def_88))
(define-fun .def_200 () Bool (or .def_89 .def_199))
(define-fun .def_69 () Int (+ .def_10 .def_68))
(define-fun .def_70 () Int (+ .def_8 .def_69))
(define-fun .def_71 () Bool (= .def_70 0))
(define-fun .def_54 () Bool (not .def_53))
(define-fun .def_50 () (Array Int Int) (store .def_12 |.x{86}| 42))
(define-fun .def_51 () Bool (= |.x{114}| .def_50))
(define-fun .def_45 () Int (* (- 1) |.x{113}|))
(define-fun .def_46 () Int (+ .def_10 .def_45))
(define-fun .def_47 () Bool (= .def_46 (- 1)))
(define-fun .def_37 () Bool (= .def_14 |.x{111}|))
(define-fun .def_32 () Bool (<= |.x{86}| 0))
(define-fun .def_33 () Bool (not .def_32))
(define-fun .def_35 () Bool (or .def_33 .def_34))
(define-fun .def_29 () Bool (and |.loc{5}| .def_28))
(define-fun .def_36 () Bool (and .def_29 .def_35))
(define-fun .def_38 () Bool (and .def_36 .def_37))
(define-fun .def_40 () Bool (and .def_38 .def_39))
(define-fun .def_48 () Bool (and .def_40 .def_47))
(define-fun .def_52 () Bool (and .def_48 .def_51))
(define-fun .def_55 () Bool (and .def_52 .def_54))
(define-fun .def_57 () Bool (and .def_55 .def_56))
(define-fun .def_58 () Bool (and .def_24 .def_57))
(define-fun .def_60 () Bool (and .def_58 .def_59))
(define-fun .def_62 () Bool (and .def_60 .def_61))
(define-fun .def_64 () Bool (and .def_62 .def_63))
(define-fun .def_72 () Bool (and .def_64 .def_71))
(define-fun .def_74 () Bool (and .def_72 .def_73))
(define-fun .def_201 () Bool (! (or .def_74 .def_200) :trans true))
(define-fun .def_203 () Int (! |.x{147}| :next |.xpv{2}|))
(define-fun .def_205 () Int (! |.x{151}| :next |.xpv{1}|))
(define-fun .def_225 () Bool (and .def_24 .def_26))
(define-fun .def_220 () Int (* (- 1) .def_205))
(define-fun .def_221 () Int (+ .def_8 .def_220))
(define-fun .def_222 () Bool (= .def_221 (- 42)))
(define-fun .def_211 () Int (* (- 1) .def_203))
(define-fun .def_214 () Int (+ .def_14 .def_211))
(define-fun .def_215 () Int (+ .def_10 .def_214))
(define-fun .def_216 () Bool (= .def_215 0))
(define-fun .def_217 () Bool (and .def_167 .def_216))
(define-fun .def_208 () Bool (<= .def_203 0))
(define-fun .def_209 () Bool (not .def_208))
(define-fun .def_210 () Bool (or .def_174 .def_209))
(define-fun .def_218 () Bool (and .def_210 .def_217))
(define-fun .def_219 () Bool (and .def_177 .def_218))
(define-fun .def_223 () Bool (and .def_219 .def_222))
(define-fun .def_204 () Int (select .def_12 .def_203))
(define-fun .def_206 () Bool (= .def_204 .def_205))
(define-fun .def_207 () Bool (not .def_206))
(define-fun .def_224 () Bool (and .def_207 .def_223))
(define-fun .def_226 () Bool (and .def_224 .def_225))
(define-fun .def_229 () Bool (! (not .def_226) :invar-property 0))
(assert true)
